Minimize
obj: max_load
Subject To
transit_load_1: x111 + x112 + x113 + x114 + x115 + x116 + x117 + x211 + x212 + x213 + x214 + x215 + x216 + x217 + x311 + x312 + x313 + x314 + x315 + x316 + x317 + x411 + x412 + x413 + x414 + x415 + x416 + x417 + x511 + x512 + x513 + x514 + x515 + x516 + x517 + x611 + x612 + x613 + x614 + x615 + x616 + x617 + x711 + x712 + x713 + x714 + x715 + x716 + x717 - max_load <= 0
transit_load_2: x121 + x122 + x123 + x124 + x125 + x126 + x127 + x221 + x222 + x223 + x224 + x225 + x226 + x227 + x321 + x322 + x323 + x324 + x325 + x326 + x327 + x421 + x422 + x423 + x424 + x425 + x426 + x427 + x521 + x522 + x523 + x524 + x525 + x526 + x527 + x621 + x622 + x623 + x624 + x625 + x626 + x627 + x721 + x722 + x723 + x724 + x725 + x726 + x727 - max_load <= 0
transit_load_3: x131 + x132 + x133 + x134 + x135 + x136 + x137 + x231 + x232 + x233 + x234 + x235 + x236 + x237 + x331 + x332 + x333 + x334 + x335 + x336 + x337 + x431 + x432 + x433 + x434 + x435 + x436 + x437 + x531 + x532 + x533 + x534 + x535 + x536 + x537 + x631 + x632 + x633 + x634 + x635 + x636 + x637 + x731 + x732 + x733 + x734 + x735 + x736 + x737 - max_load <= 0
transit_load_4: x141 + x142 + x143 + x144 + x145 + x146 + x147 + x241 + x242 + x243 + x244 + x245 + x246 + x247 + x341 + x342 + x343 + x344 + x345 + x346 + x347 + x441 + x442 + x443 + x444 + x445 + x446 + x447 + x541 + x542 + x543 + x544 + x545 + x546 + x547 + x641 + x642 + x643 + x644 + x645 + x646 + x647 + x741 + x742 + x743 + x744 + x745 + x746 + x747 - max_load <= 0
transit_load_5: x151 + x152 + x153 + x154 + x155 + x156 + x157 + x251 + x252 + x253 + x254 + x255 + x256 + x257 + x351 + x352 + x353 + x354 + x355 + x356 + x357 + x451 + x452 + x453 + x454 + x455 + x456 + x457 + x551 + x552 + x553 + x554 + x555 + x556 + x557 + x651 + x652 + x653 + x654 + x655 + x656 + x657 + x751 + x752 + x753 + x754 + x755 + x756 + x757 - max_load <= 0
demand_1_1: x111 + x121 + x131 + x141 + x151 = 2
paths_1_1: b111 + b121 + b131 + b141 + b151 = 2
link_flow_111: x111 <= 2 b111
link_flow_121: x121 <= 2 b121
link_flow_131: x131 <= 2 b131
link_flow_141: x141 <= 2 b141
link_flow_151: x151 <= 2 b151
demand_1_2: x112 + x122 + x132 + x142 + x152 = 3
paths_1_2: b112 + b122 + b132 + b142 + b152 = 2
link_flow_112: x112 <= 3 b112
link_flow_122: x122 <= 3 b122
link_flow_132: x132 <= 3 b132
link_flow_142: x142 <= 3 b142
link_flow_152: x152 <= 3 b152
demand_1_3: x113 + x123 + x133 + x143 + x153 = 4
paths_1_3: b113 + b123 + b133 + b143 + b153 = 2
link_flow_113: x113 <= 4 b113
link_flow_123: x123 <= 4 b123
link_flow_133: x133 <= 4 b133
link_flow_143: x143 <= 4 b143
link_flow_153: x153 <= 4 b153
demand_1_4: x114 + x124 + x134 + x144 + x154 = 5
paths_1_4: b114 + b124 + b134 + b144 + b154 = 2
link_flow_114: x114 <= 5 b114
link_flow_124: x124 <= 5 b124
link_flow_134: x134 <= 5 b134
link_flow_144: x144 <= 5 b144
link_flow_154: x154 <= 5 b154
demand_1_5: x115 + x125 + x135 + x145 + x155 = 6
paths_1_5: b115 + b125 + b135 + b145 + b155 = 2
link_flow_115: x115 <= 6 b115
link_flow_125: x125 <= 6 b125
link_flow_135: x135 <= 6 b135
link_flow_145: x145 <= 6 b145
link_flow_155: x155 <= 6 b155
demand_1_6: x116 + x126 + x136 + x146 + x156 = 7
paths_1_6: b116 + b126 + b136 + b146 + b156 = 2
link_flow_116: x116 <= 7 b116
link_flow_126: x126 <= 7 b126
link_flow_136: x136 <= 7 b136
link_flow_146: x146 <= 7 b146
link_flow_156: x156 <= 7 b156
demand_1_7: x117 + x127 + x137 + x147 + x157 = 8
paths_1_7: b117 + b127 + b137 + b147 + b157 = 2
link_flow_117: x117 <= 8 b117
link_flow_127: x127 <= 8 b127
link_flow_137: x137 <= 8 b137
link_flow_147: x147 <= 8 b147
link_flow_157: x157 <= 8 b157
demand_2_1: x211 + x221 + x231 + x241 + x251 = 3
paths_2_1: b211 + b221 + b231 + b241 + b251 = 2
link_flow_211: x211 <= 3 b211
link_flow_221: x221 <= 3 b221
link_flow_231: x231 <= 3 b231
link_flow_241: x241 <= 3 b241
link_flow_251: x251 <= 3 b251
demand_2_2: x212 + x222 + x232 + x242 + x252 = 4
paths_2_2: b212 + b222 + b232 + b242 + b252 = 2
link_flow_212: x212 <= 4 b212
link_flow_222: x222 <= 4 b222
link_flow_232: x232 <= 4 b232
link_flow_242: x242 <= 4 b242
link_flow_252: x252 <= 4 b252
demand_2_3: x213 + x223 + x233 + x243 + x253 = 5
paths_2_3: b213 + b223 + b233 + b243 + b253 = 2
link_flow_213: x213 <= 5 b213
link_flow_223: x223 <= 5 b223
link_flow_233: x233 <= 5 b233
link_flow_243: x243 <= 5 b243
link_flow_253: x253 <= 5 b253
demand_2_4: x214 + x224 + x234 + x244 + x254 = 6
paths_2_4: b214 + b224 + b234 + b244 + b254 = 2
link_flow_214: x214 <= 6 b214
link_flow_224: x224 <= 6 b224
link_flow_234: x234 <= 6 b234
link_flow_244: x244 <= 6 b244
link_flow_254: x254 <= 6 b254
demand_2_5: x215 + x225 + x235 + x245 + x255 = 7
paths_2_5: b215 + b225 + b235 + b245 + b255 = 2
link_flow_215: x215 <= 7 b215
link_flow_225: x225 <= 7 b225
link_flow_235: x235 <= 7 b235
link_flow_245: x245 <= 7 b245
link_flow_255: x255 <= 7 b255
demand_2_6: x216 + x226 + x236 + x246 + x256 = 8
paths_2_6: b216 + b226 + b236 + b246 + b256 = 2
link_flow_216: x216 <= 8 b216
link_flow_226: x226 <= 8 b226
link_flow_236: x236 <= 8 b236
link_flow_246: x246 <= 8 b246
link_flow_256: x256 <= 8 b256
demand_2_7: x217 + x227 + x237 + x247 + x257 = 9
paths_2_7: b217 + b227 + b237 + b247 + b257 = 2
link_flow_217: x217 <= 9 b217
link_flow_227: x227 <= 9 b227
link_flow_237: x237 <= 9 b237
link_flow_247: x247 <= 9 b247
link_flow_257: x257 <= 9 b257
demand_3_1: x311 + x321 + x331 + x341 + x351 = 4
paths_3_1: b311 + b321 + b331 + b341 + b351 = 2
link_flow_311: x311 <= 4 b311
link_flow_321: x321 <= 4 b321
link_flow_331: x331 <= 4 b331
link_flow_341: x341 <= 4 b341
link_flow_351: x351 <= 4 b351
demand_3_2: x312 + x322 + x332 + x342 + x352 = 5
paths_3_2: b312 + b322 + b332 + b342 + b352 = 2
link_flow_312: x312 <= 5 b312
link_flow_322: x322 <= 5 b322
link_flow_332: x332 <= 5 b332
link_flow_342: x342 <= 5 b342
link_flow_352: x352 <= 5 b352
demand_3_3: x313 + x323 + x333 + x343 + x353 = 6
paths_3_3: b313 + b323 + b333 + b343 + b353 = 2
link_flow_313: x313 <= 6 b313
link_flow_323: x323 <= 6 b323
link_flow_333: x333 <= 6 b333
link_flow_343: x343 <= 6 b343
link_flow_353: x353 <= 6 b353
demand_3_4: x314 + x324 + x334 + x344 + x354 = 7
paths_3_4: b314 + b324 + b334 + b344 + b354 = 2
link_flow_314: x314 <= 7 b314
link_flow_324: x324 <= 7 b324
link_flow_334: x334 <= 7 b334
link_flow_344: x344 <= 7 b344
link_flow_354: x354 <= 7 b354
demand_3_5: x315 + x325 + x335 + x345 + x355 = 8
paths_3_5: b315 + b325 + b335 + b345 + b355 = 2
link_flow_315: x315 <= 8 b315
link_flow_325: x325 <= 8 b325
link_flow_335: x335 <= 8 b335
link_flow_345: x345 <= 8 b345
link_flow_355: x355 <= 8 b355
demand_3_6: x316 + x326 + x336 + x346 + x356 = 9
paths_3_6: b316 + b326 + b336 + b346 + b356 = 2
link_flow_316: x316 <= 9 b316
link_flow_326: x326 <= 9 b326
link_flow_336: x336 <= 9 b336
link_flow_346: x346 <= 9 b346
link_flow_356: x356 <= 9 b356
demand_3_7: x317 + x327 + x337 + x347 + x357 = 10
paths_3_7: b317 + b327 + b337 + b347 + b357 = 2
link_flow_317: x317 <= 10 b317
link_flow_327: x327 <= 10 b327
link_flow_337: x337 <= 10 b337
link_flow_347: x347 <= 10 b347
link_flow_357: x357 <= 10 b357
demand_4_1: x411 + x421 + x431 + x441 + x451 = 5
paths_4_1: b411 + b421 + b431 + b441 + b451 = 2
link_flow_411: x411 <= 5 b411
link_flow_421: x421 <= 5 b421
link_flow_431: x431 <= 5 b431
link_flow_441: x441 <= 5 b441
link_flow_451: x451 <= 5 b451
demand_4_2: x412 + x422 + x432 + x442 + x452 = 6
paths_4_2: b412 + b422 + b432 + b442 + b452 = 2
link_flow_412: x412 <= 6 b412
link_flow_422: x422 <= 6 b422
link_flow_432: x432 <= 6 b432
link_flow_442: x442 <= 6 b442
link_flow_452: x452 <= 6 b452
demand_4_3: x413 + x423 + x433 + x443 + x453 = 7
paths_4_3: b413 + b423 + b433 + b443 + b453 = 2
link_flow_413: x413 <= 7 b413
link_flow_423: x423 <= 7 b423
link_flow_433: x433 <= 7 b433
link_flow_443: x443 <= 7 b443
link_flow_453: x453 <= 7 b453
demand_4_4: x414 + x424 + x434 + x444 + x454 = 8
paths_4_4: b414 + b424 + b434 + b444 + b454 = 2
link_flow_414: x414 <= 8 b414
link_flow_424: x424 <= 8 b424
link_flow_434: x434 <= 8 b434
link_flow_444: x444 <= 8 b444
link_flow_454: x454 <= 8 b454
demand_4_5: x415 + x425 + x435 + x445 + x455 = 9
paths_4_5: b415 + b425 + b435 + b445 + b455 = 2
link_flow_415: x415 <= 9 b415
link_flow_425: x425 <= 9 b425
link_flow_435: x435 <= 9 b435
link_flow_445: x445 <= 9 b445
link_flow_455: x455 <= 9 b455
demand_4_6: x416 + x426 + x436 + x446 + x456 = 10
paths_4_6: b416 + b426 + b436 + b446 + b456 = 2
link_flow_416: x416 <= 10 b416
link_flow_426: x426 <= 10 b426
link_flow_436: x436 <= 10 b436
link_flow_446: x446 <= 10 b446
link_flow_456: x456 <= 10 b456
demand_4_7: x417 + x427 + x437 + x447 + x457 = 11
paths_4_7: b417 + b427 + b437 + b447 + b457 = 2
link_flow_417: x417 <= 11 b417
link_flow_427: x427 <= 11 b427
link_flow_437: x437 <= 11 b437
link_flow_447: x447 <= 11 b447
link_flow_457: x457 <= 11 b457
demand_5_1: x511 + x521 + x531 + x541 + x551 = 6
paths_5_1: b511 + b521 + b531 + b541 + b551 = 2
link_flow_511: x511 <= 6 b511
link_flow_521: x521 <= 6 b521
link_flow_531: x531 <= 6 b531
link_flow_541: x541 <= 6 b541
link_flow_551: x551 <= 6 b551
demand_5_2: x512 + x522 + x532 + x542 + x552 = 7
paths_5_2: b512 + b522 + b532 + b542 + b552 = 2
link_flow_512: x512 <= 7 b512
link_flow_522: x522 <= 7 b522
link_flow_532: x532 <= 7 b532
link_flow_542: x542 <= 7 b542
link_flow_552: x552 <= 7 b552
demand_5_3: x513 + x523 + x533 + x543 + x553 = 8
paths_5_3: b513 + b523 + b533 + b543 + b553 = 2
link_flow_513: x513 <= 8 b513
link_flow_523: x523 <= 8 b523
link_flow_533: x533 <= 8 b533
link_flow_543: x543 <= 8 b543
link_flow_553: x553 <= 8 b553
demand_5_4: x514 + x524 + x534 + x544 + x554 = 9
paths_5_4: b514 + b524 + b534 + b544 + b554 = 2
link_flow_514: x514 <= 9 b514
link_flow_524: x524 <= 9 b524
link_flow_534: x534 <= 9 b534
link_flow_544: x544 <= 9 b544
link_flow_554: x554 <= 9 b554
demand_5_5: x515 + x525 + x535 + x545 + x555 = 10
paths_5_5: b515 + b525 + b535 + b545 + b555 = 2
link_flow_515: x515 <= 10 b515
link_flow_525: x525 <= 10 b525
link_flow_535: x535 <= 10 b535
link_flow_545: x545 <= 10 b545
link_flow_555: x555 <= 10 b555
demand_5_6: x516 + x526 + x536 + x546 + x556 = 11
paths_5_6: b516 + b526 + b536 + b546 + b556 = 2
link_flow_516: x516 <= 11 b516
link_flow_526: x526 <= 11 b526
link_flow_536: x536 <= 11 b536
link_flow_546: x546 <= 11 b546
link_flow_556: x556 <= 11 b556
demand_5_7: x517 + x527 + x537 + x547 + x557 = 12
paths_5_7: b517 + b527 + b537 + b547 + b557 = 2
link_flow_517: x517 <= 12 b517
link_flow_527: x527 <= 12 b527
link_flow_537: x537 <= 12 b537
link_flow_547: x547 <= 12 b547
link_flow_557: x557 <= 12 b557
demand_6_1: x611 + x621 + x631 + x641 + x651 = 7
paths_6_1: b611 + b621 + b631 + b641 + b651 = 2
link_flow_611: x611 <= 7 b611
link_flow_621: x621 <= 7 b621
link_flow_631: x631 <= 7 b631
link_flow_641: x641 <= 7 b641
link_flow_651: x651 <= 7 b651
demand_6_2: x612 + x622 + x632 + x642 + x652 = 8
paths_6_2: b612 + b622 + b632 + b642 + b652 = 2
link_flow_612: x612 <= 8 b612
link_flow_622: x622 <= 8 b622
link_flow_632: x632 <= 8 b632
link_flow_642: x642 <= 8 b642
link_flow_652: x652 <= 8 b652
demand_6_3: x613 + x623 + x633 + x643 + x653 = 9
paths_6_3: b613 + b623 + b633 + b643 + b653 = 2
link_flow_613: x613 <= 9 b613
link_flow_623: x623 <= 9 b623
link_flow_633: x633 <= 9 b633
link_flow_643: x643 <= 9 b643
link_flow_653: x653 <= 9 b653
demand_6_4: x614 + x624 + x634 + x644 + x654 = 10
paths_6_4: b614 + b624 + b634 + b644 + b654 = 2
link_flow_614: x614 <= 10 b614
link_flow_624: x624 <= 10 b624
link_flow_634: x634 <= 10 b634
link_flow_644: x644 <= 10 b644
link_flow_654: x654 <= 10 b654
demand_6_5: x615 + x625 + x635 + x645 + x655 = 11
paths_6_5: b615 + b625 + b635 + b645 + b655 = 2
link_flow_615: x615 <= 11 b615
link_flow_625: x625 <= 11 b625
link_flow_635: x635 <= 11 b635
link_flow_645: x645 <= 11 b645
link_flow_655: x655 <= 11 b655
demand_6_6: x616 + x626 + x636 + x646 + x656 = 12
paths_6_6: b616 + b626 + b636 + b646 + b656 = 2
link_flow_616: x616 <= 12 b616
link_flow_626: x626 <= 12 b626
link_flow_636: x636 <= 12 b636
link_flow_646: x646 <= 12 b646
link_flow_656: x656 <= 12 b656
demand_6_7: x617 + x627 + x637 + x647 + x657 = 13
paths_6_7: b617 + b627 + b637 + b647 + b657 = 2
link_flow_617: x617 <= 13 b617
link_flow_627: x627 <= 13 b627
link_flow_637: x637 <= 13 b637
link_flow_647: x647 <= 13 b647
link_flow_657: x657 <= 13 b657
demand_7_1: x711 + x721 + x731 + x741 + x751 = 8
paths_7_1: b711 + b721 + b731 + b741 + b751 = 2
link_flow_711: x711 <= 8 b711
link_flow_721: x721 <= 8 b721
link_flow_731: x731 <= 8 b731
link_flow_741: x741 <= 8 b741
link_flow_751: x751 <= 8 b751
demand_7_2: x712 + x722 + x732 + x742 + x752 = 9
paths_7_2: b712 + b722 + b732 + b742 + b752 = 2
link_flow_712: x712 <= 9 b712
link_flow_722: x722 <= 9 b722
link_flow_732: x732 <= 9 b732
link_flow_742: x742 <= 9 b742
link_flow_752: x752 <= 9 b752
demand_7_3: x713 + x723 + x733 + x743 + x753 = 10
paths_7_3: b713 + b723 + b733 + b743 + b753 = 2
link_flow_713: x713 <= 10 b713
link_flow_723: x723 <= 10 b723
link_flow_733: x733 <= 10 b733
link_flow_743: x743 <= 10 b743
link_flow_753: x753 <= 10 b753
demand_7_4: x714 + x724 + x734 + x744 + x754 = 11
paths_7_4: b714 + b724 + b734 + b744 + b754 = 2
link_flow_714: x714 <= 11 b714
link_flow_724: x724 <= 11 b724
link_flow_734: x734 <= 11 b734
link_flow_744: x744 <= 11 b744
link_flow_754: x754 <= 11 b754
demand_7_5: x715 + x725 + x735 + x745 + x755 = 12
paths_7_5: b715 + b725 + b735 + b745 + b755 = 2
link_flow_715: x715 <= 12 b715
link_flow_725: x725 <= 12 b725
link_flow_735: x735 <= 12 b735
link_flow_745: x745 <= 12 b745
link_flow_755: x755 <= 12 b755
demand_7_6: x716 + x726 + x736 + x746 + x756 = 13
paths_7_6: b716 + b726 + b736 + b746 + b756 = 2
link_flow_716: x716 <= 13 b716
link_flow_726: x726 <= 13 b726
link_flow_736: x736 <= 13 b736
link_flow_746: x746 <= 13 b746
link_flow_756: x756 <= 13 b756
demand_7_7: x717 + x727 + x737 + x747 + x757 = 14
paths_7_7: b717 + b727 + b737 + b747 + b757 = 2
link_flow_717: x717 <= 14 b717
link_flow_727: x727 <= 14 b727
link_flow_737: x737 <= 14 b737
link_flow_747: x747 <= 14 b747
link_flow_757: x757 <= 14 b757
Bounds
 0 <= x111 <= 2
 0 <= x121 <= 2
 0 <= x131 <= 2
 0 <= x141 <= 2
 0 <= x151 <= 2
 0 <= x112 <= 3
 0 <= x122 <= 3
 0 <= x132 <= 3
 0 <= x142 <= 3
 0 <= x152 <= 3
 0 <= x113 <= 4
 0 <= x123 <= 4
 0 <= x133 <= 4
 0 <= x143 <= 4
 0 <= x153 <= 4
 0 <= x114 <= 5
 0 <= x124 <= 5
 0 <= x134 <= 5
 0 <= x144 <= 5
 0 <= x154 <= 5
 0 <= x115 <= 6
 0 <= x125 <= 6
 0 <= x135 <= 6
 0 <= x145 <= 6
 0 <= x155 <= 6
 0 <= x116 <= 7
 0 <= x126 <= 7
 0 <= x136 <= 7
 0 <= x146 <= 7
 0 <= x156 <= 7
 0 <= x117 <= 8
 0 <= x127 <= 8
 0 <= x137 <= 8
 0 <= x147 <= 8
 0 <= x157 <= 8
 0 <= x211 <= 3
 0 <= x221 <= 3
 0 <= x231 <= 3
 0 <= x241 <= 3
 0 <= x251 <= 3
 0 <= x212 <= 4
 0 <= x222 <= 4
 0 <= x232 <= 4
 0 <= x242 <= 4
 0 <= x252 <= 4
 0 <= x213 <= 5
 0 <= x223 <= 5
 0 <= x233 <= 5
 0 <= x243 <= 5
 0 <= x253 <= 5
 0 <= x214 <= 6
 0 <= x224 <= 6
 0 <= x234 <= 6
 0 <= x244 <= 6
 0 <= x254 <= 6
 0 <= x215 <= 7
 0 <= x225 <= 7
 0 <= x235 <= 7
 0 <= x245 <= 7
 0 <= x255 <= 7
 0 <= x216 <= 8
 0 <= x226 <= 8
 0 <= x236 <= 8
 0 <= x246 <= 8
 0 <= x256 <= 8
 0 <= x217 <= 9
 0 <= x227 <= 9
 0 <= x237 <= 9
 0 <= x247 <= 9
 0 <= x257 <= 9
 0 <= x311 <= 4
 0 <= x321 <= 4
 0 <= x331 <= 4
 0 <= x341 <= 4
 0 <= x351 <= 4
 0 <= x312 <= 5
 0 <= x322 <= 5
 0 <= x332 <= 5
 0 <= x342 <= 5
 0 <= x352 <= 5
 0 <= x313 <= 6
 0 <= x323 <= 6
 0 <= x333 <= 6
 0 <= x343 <= 6
 0 <= x353 <= 6
 0 <= x314 <= 7
 0 <= x324 <= 7
 0 <= x334 <= 7
 0 <= x344 <= 7
 0 <= x354 <= 7
 0 <= x315 <= 8
 0 <= x325 <= 8
 0 <= x335 <= 8
 0 <= x345 <= 8
 0 <= x355 <= 8
 0 <= x316 <= 9
 0 <= x326 <= 9
 0 <= x336 <= 9
 0 <= x346 <= 9
 0 <= x356 <= 9
 0 <= x317 <= 10
 0 <= x327 <= 10
 0 <= x337 <= 10
 0 <= x347 <= 10
 0 <= x357 <= 10
 0 <= x411 <= 5
 0 <= x421 <= 5
 0 <= x431 <= 5
 0 <= x441 <= 5
 0 <= x451 <= 5
 0 <= x412 <= 6
 0 <= x422 <= 6
 0 <= x432 <= 6
 0 <= x442 <= 6
 0 <= x452 <= 6
 0 <= x413 <= 7
 0 <= x423 <= 7
 0 <= x433 <= 7
 0 <= x443 <= 7
 0 <= x453 <= 7
 0 <= x414 <= 8
 0 <= x424 <= 8
 0 <= x434 <= 8
 0 <= x444 <= 8
 0 <= x454 <= 8
 0 <= x415 <= 9
 0 <= x425 <= 9
 0 <= x435 <= 9
 0 <= x445 <= 9
 0 <= x455 <= 9
 0 <= x416 <= 10
 0 <= x426 <= 10
 0 <= x436 <= 10
 0 <= x446 <= 10
 0 <= x456 <= 10
 0 <= x417 <= 11
 0 <= x427 <= 11
 0 <= x437 <= 11
 0 <= x447 <= 11
 0 <= x457 <= 11
 0 <= x511 <= 6
 0 <= x521 <= 6
 0 <= x531 <= 6
 0 <= x541 <= 6
 0 <= x551 <= 6
 0 <= x512 <= 7
 0 <= x522 <= 7
 0 <= x532 <= 7
 0 <= x542 <= 7
 0 <= x552 <= 7
 0 <= x513 <= 8
 0 <= x523 <= 8
 0 <= x533 <= 8
 0 <= x543 <= 8
 0 <= x553 <= 8
 0 <= x514 <= 9
 0 <= x524 <= 9
 0 <= x534 <= 9
 0 <= x544 <= 9
 0 <= x554 <= 9
 0 <= x515 <= 10
 0 <= x525 <= 10
 0 <= x535 <= 10
 0 <= x545 <= 10
 0 <= x555 <= 10
 0 <= x516 <= 11
 0 <= x526 <= 11
 0 <= x536 <= 11
 0 <= x546 <= 11
 0 <= x556 <= 11
 0 <= x517 <= 12
 0 <= x527 <= 12
 0 <= x537 <= 12
 0 <= x547 <= 12
 0 <= x557 <= 12
 0 <= x611 <= 7
 0 <= x621 <= 7
 0 <= x631 <= 7
 0 <= x641 <= 7
 0 <= x651 <= 7
 0 <= x612 <= 8
 0 <= x622 <= 8
 0 <= x632 <= 8
 0 <= x642 <= 8
 0 <= x652 <= 8
 0 <= x613 <= 9
 0 <= x623 <= 9
 0 <= x633 <= 9
 0 <= x643 <= 9
 0 <= x653 <= 9
 0 <= x614 <= 10
 0 <= x624 <= 10
 0 <= x634 <= 10
 0 <= x644 <= 10
 0 <= x654 <= 10
 0 <= x615 <= 11
 0 <= x625 <= 11
 0 <= x635 <= 11
 0 <= x645 <= 11
 0 <= x655 <= 11
 0 <= x616 <= 12
 0 <= x626 <= 12
 0 <= x636 <= 12
 0 <= x646 <= 12
 0 <= x656 <= 12
 0 <= x617 <= 13
 0 <= x627 <= 13
 0 <= x637 <= 13
 0 <= x647 <= 13
 0 <= x657 <= 13
 0 <= x711 <= 8
 0 <= x721 <= 8
 0 <= x731 <= 8
 0 <= x741 <= 8
 0 <= x751 <= 8
 0 <= x712 <= 9
 0 <= x722 <= 9
 0 <= x732 <= 9
 0 <= x742 <= 9
 0 <= x752 <= 9
 0 <= x713 <= 10
 0 <= x723 <= 10
 0 <= x733 <= 10
 0 <= x743 <= 10
 0 <= x753 <= 10
 0 <= x714 <= 11
 0 <= x724 <= 11
 0 <= x734 <= 11
 0 <= x744 <= 11
 0 <= x754 <= 11
 0 <= x715 <= 12
 0 <= x725 <= 12
 0 <= x735 <= 12
 0 <= x745 <= 12
 0 <= x755 <= 12
 0 <= x716 <= 13
 0 <= x726 <= 13
 0 <= x736 <= 13
 0 <= x746 <= 13
 0 <= x756 <= 13
 0 <= x717 <= 14
 0 <= x727 <= 14
 0 <= x737 <= 14
 0 <= x747 <= 14
 0 <= x757 <= 14
Generals
 b111
 b121
 b131
 b141
 b151
 b112
 b122
 b132
 b142
 b152
 b113
 b123
 b133
 b143
 b153
 b114
 b124
 b134
 b144
 b154
 b115
 b125
 b135
 b145
 b155
 b116
 b126
 b136
 b146
 b156
 b117
 b127
 b137
 b147
 b157
 b211
 b221
 b231
 b241
 b251
 b212
 b222
 b232
 b242
 b252
 b213
 b223
 b233
 b243
 b253
 b214
 b224
 b234
 b244
 b254
 b215
 b225
 b235
 b245
 b255
 b216
 b226
 b236
 b246
 b256
 b217
 b227
 b237
 b247
 b257
 b311
 b321
 b331
 b341
 b351
 b312
 b322
 b332
 b342
 b352
 b313
 b323
 b333
 b343
 b353
 b314
 b324
 b334
 b344
 b354
 b315
 b325
 b335
 b345
 b355
 b316
 b326
 b336
 b346
 b356
 b317
 b327
 b337
 b347
 b357
 b411
 b421
 b431
 b441
 b451
 b412
 b422
 b432
 b442
 b452
 b413
 b423
 b433
 b443
 b453
 b414
 b424
 b434
 b444
 b454
 b415
 b425
 b435
 b445
 b455
 b416
 b426
 b436
 b446
 b456
 b417
 b427
 b437
 b447
 b457
 b511
 b521
 b531
 b541
 b551
 b512
 b522
 b532
 b542
 b552
 b513
 b523
 b533
 b543
 b553
 b514
 b524
 b534
 b544
 b554
 b515
 b525
 b535
 b545
 b555
 b516
 b526
 b536
 b546
 b556
 b517
 b527
 b537
 b547
 b557
 b611
 b621
 b631
 b641
 b651
 b612
 b622
 b632
 b642
 b652
 b613
 b623
 b633
 b643
 b653
 b614
 b624
 b634
 b644
 b654
 b615
 b625
 b635
 b645
 b655
 b616
 b626
 b636
 b646
 b656
 b617
 b627
 b637
 b647
 b657
 b711
 b721
 b731
 b741
 b751
 b712
 b722
 b732
 b742
 b752
 b713
 b723
 b733
 b743
 b753
 b714
 b724
 b734
 b744
 b754
 b715
 b725
 b735
 b745
 b755
 b716
 b726
 b736
 b746
 b756
 b717
 b727
 b737
 b747
 b757
End
